1
1 0
293.5 116.5 110.0
17
27 99 0 46 1 38 1 8
24 101 0 46 1 25 1 16
19 103 0 69 1 49 1 8
25 99 0 53 1 36 1 8
22 108 0 57 1 40 1 16
28 103 1 80 1 79 1 16
2 52 1 37 1 28 1 24
10 116 0 49 1 47 1 16
1 113 0 92 0 33 1 8
11 83 0 44 1 23 1 16
21 92 1 63 1 50 1 16
17 83 0 78 0 37 1 8
8 75 0 45 1 35 1 24
23 62 1 60 1 58 1 8
18 68 0 34 1 33 1 8
15 41 1 33 1 31 1 16
14 98 0 88 1 47 1 8

